130 5
10 10 10 10 10 

0 0 0 0 0 0 1 2 
0 0 0 0 0 0 3 3 11 12 
8 0 0 0 1 0 4 10 9 6 4 
6 0 0 0 7 0 1 5 
2 0 0 0 9 0 1 7 
10 0 0 0 6 0 1 7 
1 0 0 0 3 0 1 8 
10 0 0 0 2 0 1 13 
8 0 0 0 4 0 1 13 
9 0 0 0 8 0 1 13 
9 0 0 0 7 0 1 13 
4 0 0 0 3 0 1 13 
0 0 0 0 0 0 2 14 26 
0 0 0 0 0 0 3 15 18 20 
2 1 0 0 0 0 2 17 16 
3 5 0 0 0 0 3 22 19 85 
2 2 0 0 0 0 2 22 19 
1 8 0 0 0 0 3 24 22 21 
9 4 0 0 0 0 2 24 21 
5 7 0 0 0 0 2 22 21 
6 5 0 0 0 0 1 23 
2 7 0 0 0 0 1 23 
7 8 0 0 0 0 1 25 
8 3 0 0 0 0 1 25 
0 0 0 0 0 0 1 38 
0 0 0 0 0 0 5 27 28 29 31 36 
8 1 0 0 0 0 2 35 30 
4 3 0 0 0 0 2 35 32 
7 6 0 0 0 0 2 35 33 
4 6 0 0 0 0 1 32 
2 5 0 0 0 0 1 32 
2 7 0 0 0 0 2 33 117 
2 6 0 0 0 0 1 34 
1 10 0 0 0 0 1 37 
7 2 0 0 0 0 1 37 
4 4 0 0 0 0 1 37 
0 0 0 0 0 0 1 38 
0 0 0 0 0 0 3 39 61 83 
0 0 0 0 0 0 3 40 42 43 
8 1 1 0 0 0 3 53 49 41 
8 5 8 0 0 0 2 54 44 
6 3 2 0 0 0 4 53 49 48 46 
7 6 4 0 0 0 4 53 49 48 46 
9 8 6 0 0 0 2 48 45 
7 4 8 0 0 0 1 46 
5 8 4 0 0 0 1 47 
9 4 6 0 0 0 4 57 56 52 50 
4 2 5 0 0 0 3 56 50 110 
4 5 6 0 0 0 2 56 52 
3 7 4 0 0 0 1 51 
1 7 5 0 0 0 1 55 
9 5 5 0 0 0 1 55 
2 2 7 0 0 0 1 57 
5 8 3 0 0 0 1 57 
2 4 2 0 0 0 1 58 
4 6 9 0 0 0 1 59 
10 7 10 0 0 0 1 58 
3 3 3 0 0 0 1 60 
6 5 2 0 0 0 1 60 
0 0 0 0 0 0 1 119 
0 0 0 0 0 0 2 62 64 
6 0 0 0 1 1 2 66 63 
10 0 0 0 3 3 1 65 
5 0 0 0 5 2 1 65 
6 0 0 0 5 3 1 67 
9 0 0 0 3 6 1 67 
8 0 0 0 7 3 3 74 69 68 
9 0 0 0 3 1 3 73 72 71 
10 0 0 0 8 5 2 72 70 
4 0 0 0 6 3 2 81 75 
5 0 0 0 7 9 2 81 75 
7 0 0 0 8 8 2 75 98 
5 0 0 0 5 4 1 75 
3 0 0 0 4 6 1 75 
10 0 0 0 7 7 2 80 76 
4 0 0 0 2 2 2 79 77 
5 0 0 0 3 8 1 78 
8 0 0 0 6 6 1 82 
6 0 0 0 5 5 1 82 
10 0 0 0 3 10 1 82 
5 0 0 0 9 8 1 82 
0 0 0 0 0 0 1 119 
0 0 0 0 0 0 4 84 87 92 93 
7 0 1 0 0 0 1 85 
8 0 2 0 0 0 2 91 86 
3 0 6 0 0 0 2 89 88 
1 0 4 0 0 0 2 91 89 
5 0 7 0 0 0 1 90 
4 0 4 0 0 0 1 94 
9 0 6 0 0 0 1 94 
5 0 4 0 0 0 1 94 
9 0 6 0 0 0 1 94 
7 0 10 0 0 0 1 94 
0 0 0 0 0 0 2 95 107 
0 0 0 0 0 0 3 96 104 105 
6 0 0 1 0 0 3 103 102 97 
9 0 0 5 0 0 2 101 98 
4 0 0 5 0 0 1 99 
8 0 0 6 0 0 1 100 
8 0 0 10 0 0 1 106 
5 0 0 6 0 0 1 106 
4 0 0 6 0 0 1 106 
7 0 0 4 0 0 1 106 
7 0 0 3 0 0 1 106 
2 0 0 4 0 0 1 106 
0 0 0 0 0 0 1 119 
0 0 0 0 0 0 2 108 110 
5 0 0 0 1 0 2 111 109 
7 0 0 0 9 0 3 115 113 112 
6 0 0 0 9 0 2 115 111 
9 0 0 0 3 0 2 117 113 
8 0 0 0 4 0 2 117 114 
5 0 0 0 5 0 1 114 
10 0 0 0 5 0 1 116 
4 0 0 0 4 0 1 116 
4 0 0 0 3 0 1 118 
6 0 0 0 7 0 1 118 
0 0 0 0 0 0 1 119 
0 0 0 0 0 0 2 120 121 
5 0 1 0 0 0 3 125 123 122 
1 0 8 0 0 0 3 129 125 124 
7 0 4 0 0 0 2 127 124 
6 0 6 0 0 0 2 129 126 
7 0 4 0 0 0 1 126 
10 0 4 0 0 0 1 126 
1 0 6 0 0 0 1 128 
4 0 6 0 0 0 1 129 
4 0 5 0 0 0 1 130 
3 0 6 0 0 0 1 130 
0 0 0 0 0 0 0 
